NAME : eil30
COMMENT : (Eilon et al.)
TYPE : CVRP
# Copyright 2014 - Anthony Awuley
# Brock University
# Computer Science Department

# GENERAL parameters
number-of-experiments                = 15
generations                          = 150
population-size                      = 4000
stop-when-solved                     = true
crossover-probability                = 0.9
mutation-probability                 = 0.1
selection-pressure                   = 0.9

# How many times the genotype is allowed to wrap
max-repairs                          = 1

# SELECTION
selection-operation                  = operator.operations.selection.TournamentSelection
tournament-size                      = 3
 
# REPRODUCTION operators
# Probability of crossover. State if the point of crossover is fixed on both chromosomes (The size will always be the same) or not
mutation_operation                   = Operator.Operations.IntFlipMutation
elite-size                           = 5
 
 
# The chromosomes are fixed length structures and doesnt change to mutation and crossover. 
# The initialiser will random create integer strings in this case of length specified
initial-chromosome-size              = 29
  
# FITNESS function - Fitness function requires the full package name
#fitness-function                    = fitnessevaluation.singleObjective.WeightedSum
#fitness-function                    = fitnessevaluation.simplefitness.FitnessExperimental
#fitness-function                    = fitnessevaluation.vrptw.WS
#fitness-function                    = fitnessevaluation.vrptw.SOR
#fitness-function                    = fitnessevaluation.vrptw.PR
#fitness-function                    = fitnessevaluation.eval.TSP
fitness-function                     = fitnessevaluation.eval.CVRP

# EC
main-class                           = main.Run

# INITIALISATION - Specifies which module to use as an initialiser initial population. 
initialiser                          = operator.initialiser.Initialise
#gene-representation                 = individuals.representation.VRPTW
gene-representation                  = individuals.representation.hybrid.TSP

# REPLACEMENT
replacement-operation                = operator.operations.replacement.Generational

# CROSSOVER MODULE
#crossover-operation                 = operator.crossover.CycleCrossover
crossover-operation                  = operator.crossover.UniformOrderCrossover

# MUTATION MODULE
mutation-operation                   = operator.mutation.Inversion
 

# Specification of output statistics files
number-of-individuals                = 1
#stats-operation                     = util.statistics.mop.ParethoStatistics
#stats-operation                     = util.statistics.mop.SumOfRankStatistics
#stats-operation                     = util.statistics.BasicStatistics
#stats-operation                     = util.statistics.sob.TSPStatistics
stats-operation                      = util.statistics.mop.CVRPHybridStatistics


DIMENSION : 30
EDGE_WEIGHT_TYPE : EUC_2D
nodes                                = 29
stat-out                             = eil30
vehicle-capacity                     = 4500
NODE_COORD_SECTION
1	162	354	0
2	218	382	300
3	218	358	3100
4	201	370	125
5	214	371	100
6	224	370	200
7	210	382	150
8	104	354	150
9	126	338	450
10	119	340	300
11	129	349	100
12	126	347	950
13	125	346	125
14	116	355	150
15	126	335	150
16	125	355	550
17	119	357	150
18	115	341	100
19	153	351	150
20	175	363	400
21	180	360	300
22	159	331	1500
23	188	357	100
24	152	349	300
25	215	389	500
26	212	394	800
27	188	393	300
28	207	406	100
29	184	410	150
30	207	392	1000

DEPOT_SECTION

EOF
